\ENCODING=ISO-8859-1
\Problem name: ilog.cplex

Minimize
 obj1: 94935 x1 + 98422 x2 + 109353 x3 + 95713 x4 + 106837 x5 + 99548 x6
       + 108600 x7 + 100992 x8 + 107423 x9 + 97729 x10 + 100770 x11 + 91140 x12
       + 98361 x13 + 107513 x14 + 94022 x15 + 104974 x16 + 96702 x17
       + 94632 x18 + 104332 x19 + 92188 x20 + 100408 x21 + 90651 x22
       + 95985 x23 + 99468 x24 + 108443 x25 + 96750 x26 + 107798 x27
       + 93556 x28 + 106284 x29 + 99438 x30 + 108044 x31 + 101615 x32
       + 103335 x33 + 93716 x34 + 101994 x35 + 99695 x36 + 100004 x37
       + 102479 x38 + 102573 x39 + 101236 x40 + 109103 x41 + 94887 x42
       + 106860 x43 + 109299 x44 + 98739 x45 + 100973 x46 + 98958 x47
       + 98541 x48 + 102010 x49 + 94947 x50 + 103234 x51 + 105964 x52
       + 92603 x53 + 95456 x54 + 101025 x55 + 93080 x56 + 94773 x57
       + 107453 x58 + 98582 x59 + 96362 x60 + 107727 x61 + 92870 x62
       + 91438 x63 + 99886 x64 + 102261 x65 + 91412 x66 + 103476 x67
       + 99393 x68 + 96553 x69 + 106171 x70 + 101114 x71 + 91876 x72
       + 97697 x73 + 105879 x74 + 94290 x75 + 100474 x76 + 90403 x77
       + 107869 x78 + 93783 x79 + 103822 x80 + 107661 x81 + 96603 x82
       + 106478 x83 + 97430 x84 + 98999 x85 + 97630 x86 + 96010 x87 + 93084 x88
       + 109593 x89 + 103149 x90 + 109423 x91 + 109520 x92 + 93420 x93
       + 90960 x94 + 93155 x95 + 98625 x96 + 104035 x97 + 99896 x98
       + 104964 x99 + 107967 x100 + 97764 x101 + 101693 x102 + 92328 x103
       + 102688 x104 + 105764 x105 + 101775 x106 + 92410 x107 + 97606 x108
       + 103824 x109 + 109601 x110 + 93855 x111 + 103844 x112 + 91728 x113
       + 102963 x114 + 106475 x115 + 93378 x116 + 107626 x117 + 90036 x118
       + 91327 x119 + 109606 x120 + 102371 x121 + 91626 x122 + 107594 x123
       + 105314 x124 + 101826 x125 + 95947 x126 + 99656 x127 + 94019 x128
       + 107116 x129 + 101419 x130 + 100721 x131 + 100818 x132 + 93060 x133
       + 107298 x134 + 93362 x135 + 102822 x136 + 90831 x137 + 90780 x138
       + 109249 x139 + 103550 x140 + 97123 x141 + 93858 x142 + 92070 x143
       + 106455 x144 + 90331 x145 + 93859 x146 + 101775 x147 + 95097 x148
       + 102024 x149 + 103781 x150 + 101580 x151 + 98389 x152 + 107288 x153
       + 108366 x154 + 104879 x155 + 92075 x156 + 98486 x157 + 92370 x158
       + 90431 x159 + 100824 x160 + 93566 x161 + 98577 x162 + 101097 x163
       + 99327 x164 + 102257 x165 + 104863 x166 + 103940 x167 + 105266 x168
       + 91311 x169 + 91971 x170 + 107623 x171 + 92259 x172 + 93422 x173
       + 106641 x174 + 106810 x175 + 106639 x176 + 93526 x177 + 108355 x178
       + 92694 x179 + 108381 x180 + 93528 x181 + 95801 x182 + 105276 x183
       + 91594 x184 + 93143 x185 + 105348 x186 + 109270 x187 + 92673 x188
       + 102124 x189 + 94935 x190 + 108566 x191 + 109249 x192 + 90131 x193
       + 98665 x194 + 99181 x195 + 109599 x196 + 106442 x197 + 95128 x198
       + 101846 x199 + 101357 x200 + 90710 x201 + 103304 x202 + 100206 x203
       + 90248 x204 + 102411 x205 + 107460 x206 + 93810 x207 + 91006 x208
       + 103192 x209 + 99593 x210 + 104808 x211 + 97248 x212 + 108385 x213
       + 93352 x214 + 107122 x215 + 102737 x216 + 106602 x217 + 94263 x218
       + 107349 x219 + 107729 x220 + 109683 x221 + 107721 x222 + 97761 x223
       + 100998 x224 + 99123 x225 + 108397 x226 + 103527 x227 + 100645 x228
       + 99716 x229 + 102521 x230 + 98619 x231 + 104952 x232 + 96299 x233
       + 107999 x234 + 107863 x235 + 108303 x236 + 95280 x237 + 96379 x238
       + 106216 x239 + 96588 x240 + 91540 x241 + 108609 x242 + 101040 x243
       + 94323 x244 + 104078 x245 + 96743 x246 + 104554 x247 + 100188 x248
       + 103010 x249 + 103745 x250 + 100294 x251 + 103346 x252 + 107353 x253
       + 94894 x254 + 108914 x255 + 103125 x256 + 108026 x257 + 109825 x258
       + 102129 x259 + 99292 x260 + 97835 x261 + 103421 x262 + 94265 x263
       + 96752 x264 + 97424 x265 + 108837 x266 + 109771 x267 + 101144 x268
       + 109283 x269 + 104685 x270 + 95549 x271 + 97060 x272 + 91883 x273
       + 100452 x274 + 102351 x275 + 100466 x276 + 101709 x277 + 106899 x278
       + 100381 x279 + 107394 x280 + 102171 x281 + 91487 x282 + 100878 x283
       + 102088 x284 + 105316 x285 + 92816 x286 + 107631 x287 + 99539 x288
       + 94759 x289 + 102587 x290 + 100225 x291 + 99671 x292 + 96401 x293
       + 98805 x294 + 94252 x295 + 103483 x296 + 97266 x297 + 109710 x298
       + 92846 x299 + 105001 x300 + 107195 x301 + 103175 x302 + 102976 x303
       + 94906 x304 + 94832 x305 + 96597 x306 + 97275 x307 + 93100 x308
       + 92743 x309 + 100286 x310 + 90476 x311 + 90543 x312 + 104108 x313
       + 93680 x314 + 104122 x315 + 105536 x316 + 100071 x317 + 92355 x318
       + 99607 x319 + 94957 x320 + 99388 x321 + 91074 x322 + 101842 x323
       + 90365 x324 + 94783 x325 + 108365 x326 + 93521 x327 + 102030 x328
       + 91308 x329 + 100017 x330 + 109795 x331 + 100064 x332 + 101242 x333
       + 98894 x334 + 105256 x335 + 107189 x336 + 109909 x337 + 104131 x338
       + 107784 x339 + 108631 x340 + 107325 x341 + 104022 x342 + 97129 x343
       + 101194 x344 + 91644 x345 + 93832 x346 + 109993 x347 + 105800 x348
       + 92154 x349 + 102243 x350 + 97983 x351 + 95584 x352 + 91918 x353
       + 108348 x354 + 109922 x355 + 105128 x356 + 93141 x357 + 94815 x358
       + 95846 x359 + 105455 x360 + 94151 x361 + 93659 x362 + 105028 x363
       + 108589 x364 + 100293 x365 + 93916 x366 + 98674 x367 + 105875 x368
       + 99817 x369 + 97688 x370 + 96818 x371 + 100167 x372 + 98558 x373
       + 102827 x374 + 95551 x375 + 100632 x376 + 107390 x377 + 102749 x378
       + 102197 x379 + 95014 x380 + 106716 x381 + 99604 x382 + 97843 x383
       + 108761 x384 + 96046 x385 + 107451 x386 + 91941 x387 + 108166 x388
       + 108439 x389 + 93533 x390 + 91702 x391 + 105198 x392 + 99345 x393
       + 95003 x394 + 108996 x395 + 93703 x396 + 94656 x397 + 108320 x398
       + 103117 x399 + 99364 x400 + 103791 x401 + 98985 x402 + 109057 x403
       + 99077 x404 + 90171 x405 + 100448 x406 + 107811 x407 + 99354 x408
       + 103685 x409 + 102733 x410 + 97765 x411 + 97909 x412 + 97552 x413
       + 93669 x414 + 104357 x415 + 107737 x416 + 95469 x417 + 108659 x418
       + 98978 x419 + 98833 x420 + 109084 x421 + 99770 x422 + 98826 x423
       + 93577 x424 + 92962 x425 + 101796 x426 + 90358 x427 + 103425 x428
       + 94273 x429 + 104337 x430 + 93113 x431 + 93244 x432 + 107560 x433
       + 98369 x434 + 105728 x435 + 94583 x436 + 91663 x437 + 106088 x438
       + 96301 x439 + 98689 x440 + 98488 x441 + 96118 x442 + 99240 x443
       + 104912 x444 + 100219 x445 + 95458 x446 + 90403 x447 + 96747 x448
       + 99017 x449 + 108257 x450 + 91450 x451 + 103533 x452 + 104650 x453
       + 91260 x454 + 93563 x455 + 95834 x456 + 107574 x457 + 101056 x458
       + 100554 x459 + 108192 x460 + 97653 x461 + 99255 x462 + 91864 x463
       + 104183 x464 + 101997 x465 + 98275 x466 + 97085 x467 + 95631 x468
       + 99337 x469 + 92637 x470 + 95358 x471 + 100334 x472 + 92896 x473
       + 108504 x474 + 105369 x475 + 90809 x476 + 108901 x477 + 97641 x478
       + 94662 x479 + 90328 x480 + 91923 x481 + 108651 x482 + 92464 x483
       + 99434 x484 + 91042 x485 + 109795 x486 + 101335 x487 + 95239 x488
       + 93188 x489 + 105423 x490 + 92722 x491 + 105065 x492 + 104148 x493
       + 94902 x494 + 100786 x495 + 93908 x496 + 92318 x497 + 99507 x498
       + 101624 x499 + 98910 x500 + 90115 x501 + 106306 x502 + 103104 x503
       + 100048 x504 + 94676 x505 + 96135 x506 + 108084 x507 + 102399 x508
       + 96735 x509 + 97487 x510 + 91430 x511 + 103724 x512 + 91037 x513
       + 99615 x514 + 100965 x515 + 90335 x516 + 101612 x517 + 90142 x518
       + 107831 x519 + 104072 x520 + 90912 x521 + 95199 x522 + 92657 x523
       + 93725 x524 + 93066 x525 + 93380 x526 + 100564 x527 + 105323 x528
       + 98403 x529 + 108742 x530 + 90201 x531 + 97464 x532 + 98920 x533
       + 102629 x534 + 99855 x535 + 90231 x536 + 102522 x537 + 99258 x538
       + 97152 x539 + 109204 x540 + 109717 x541 + 98945 x542 + 104423 x543
       + 94390 x544 + 100730 x545 + 91014 x546 + 109594 x547 + 93778 x548
       + 92558 x549 + 105144 x550 + 104126 x551 + 93084 x552 + 108178 x553
       + 103686 x554 + 102581 x555 + 109022 x556 + 103964 x557 + 95844 x558
       + 92130 x559 + 97998 x560 + 102420 x561 + 97537 x562 + 99214 x563
       + 104474 x564 + 106856 x565 + 90783 x566 + 90931 x567 + 104368 x568
       + 105942 x569 + 96832 x570 + 90781 x571 + 94211 x572 + 104676 x573
       + 91694 x574 + 109889 x575 + 96526 x576 + 97552 x577 + 102711 x578
       + 96803 x579 + 97185 x580 + 109570 x581 + 90491 x582 + 91711 x583
       + 101494 x584 + 91229 x585 + 101759 x586 + 94162 x587 + 92312 x588
       + 104744 x589 + 95599 x590 + 97357 x591 + 95735 x592 + 100463 x593
       + 98080 x594 + 106566 x595 + 107695 x596 + 94858 x597 + 108378 x598
       + 104465 x599 + 143006 x600 + 36534 x601 + 39243 x602 + 36776 x603
       + 42929 x604 + 36433 x605 + 40429 x606 + 38746 x607 + 41037 x608
       + 40315 x609 + 36313 x610 + 42418 x611 + 39570 x612 + 36419 x613
       + 43082 x614 + 38627 x615 + 43540 x616 + 39683 x617 + 39734 x618
       + 39038 x619 + 41113 x620 + 42301 x621 + 39029 x622 + 36807 x623
       + 40374 x624 + 37493 x625 + 43929 x626 + 38355 x627 + 42162 x628
       + 38078 x629 + 42080 x630 + 41750 x631 + 39929 x632 + 36464 x633
       + 39428 x634 + 41657 x635 + 42520 x636 + 38506 x637 + 41289 x638
       + 37983 x639 + 43341 x640 + 42271 x641 + 39240 x642 + 39320 x643
       + 41819 x644 + 36029 x645 + 38912 x646 + 38964 x647 + 36142 x648
       + 37903 x649 + 39307 x650 + 36739 x651 + 38199 x652 + 36403 x653
       + 40505 x654 + 40050 x655 + 36233 x656 + 40642 x657 + 37633 x658
       + 42537 x659 + 65698 x660
Subject To
 c1:   x12 - x13 - x17 - x23 - x26 - x27 + x33 + x34 + x37 - x39 + x40 + x41
       - x43 + x57 - x59  = 0
 c2:   x72 - x73 - x77 - x83 - x86 - x87 + x93 + x94 + x97 - x99 + x100 + x101
       - x103 + x117 - x119  = 0
 c3:   x132 - x133 - x137 - x143 - x146 - x147 + x153 + x154 + x157 - x159
       + x160 + x161 - x163 + x177 - x179  = -1
 c4:   x192 - x193 - x197 - x203 - x206 - x207 + x213 + x214 + x217 - x219
       + x220 + x221 - x223 + x237 - x239  = 0
 c5:   x252 - x253 - x257 - x263 - x266 - x267 + x273 + x274 + x277 - x279
       + x280 + x281 - x283 + x297 - x299  = -1
 c6:   x312 - x313 - x317 - x323 - x326 - x327 + x333 + x334 + x337 - x339
       + x340 + x341 - x343 + x357 - x359  = 0
 c7:   x372 - x373 - x377 - x383 - x386 - x387 + x393 + x394 + x397 - x399
       + x400 + x401 - x403 + x417 - x419  = 0
 c8:   x432 - x433 - x437 - x443 - x446 - x447 + x453 + x454 + x457 - x459
       + x460 + x461 - x463 + x477 - x479  = 0
 c9:   x492 - x493 - x497 - x503 - x506 - x507 + x513 + x514 + x517 - x519
       + x520 + x521 - x523 + x537 - x539  = -1
 c10:  x552 - x553 - x557 - x563 - x566 - x567 + x573 + x574 + x577 - x579
       + x580 + x581 - x583 + x597 - x599  = 0
 c11:  - x3 - x5 + x7 + x10 - x12 + x15 + x23 + x25 - x42 + x48 - x49 - x52
       - x56  = 0
 c12:  - x63 - x65 + x67 + x70 - x72 + x75 + x83 + x85 - x102 + x108 - x109
       - x112 - x116  = 0
 c13:  - x123 - x125 + x127 + x130 - x132 + x135 + x143 + x145 - x162 + x168
       - x169 - x172 - x176  = 0
 c14:  - x183 - x185 + x187 + x190 - x192 + x195 + x203 + x205 - x222 + x228
       - x229 - x232 - x236  = -1
 c15:  - x243 - x245 + x247 + x250 - x252 + x255 + x263 + x265 - x282 + x288
       - x289 - x292 - x296  = 0
 c16:  - x303 - x305 + x307 + x310 - x312 + x315 + x323 + x325 - x342 + x348
       - x349 - x352 - x356  = 0
 c17:  - x363 - x365 + x367 + x370 - x372 + x375 + x383 + x385 - x402 + x408
       - x409 - x412 - x416  = 0
 c18:  - x423 - x425 + x427 + x430 - x432 + x435 + x443 + x445 - x462 + x468
       - x469 - x472 - x476  = 0
 c19:  - x483 - x485 + x487 + x490 - x492 + x495 + x503 + x505 - x522 + x528
       - x529 - x532 - x536  = 0
 c20:  - x543 - x545 + x547 + x550 - x552 + x555 + x563 + x565 - x582 + x588
       - x589 - x592 - x596  = 0
 c21:  - x4 - x9 + x16 - x24 - x25 - x29 + x31 + x42 + x53 + x60  = 0
 c22:  - x64 - x69 + x76 - x84 - x85 - x89 + x91 + x102 + x113 + x120  = -1
 c23:  - x124 - x129 + x136 - x144 - x145 - x149 + x151 + x162 + x173 + x180
        = 0
 c24:  - x184 - x189 + x196 - x204 - x205 - x209 + x211 + x222 + x233 + x240
        = 0
 c25:  - x244 - x249 + x256 - x264 - x265 - x269 + x271 + x282 + x293 + x300
        = 0
 c26:  - x304 - x309 + x316 - x324 - x325 - x329 + x331 + x342 + x353 + x360
        = 0
 c27:  - x364 - x369 + x376 - x384 - x385 - x389 + x391 + x402 + x413 + x420
        = 0
 c28:  - x424 - x429 + x436 - x444 - x445 - x449 + x451 + x462 + x473 + x480
        = 0
 c29:  - x484 - x489 + x496 - x504 - x505 - x509 + x511 + x522 + x533 + x540
        = 0
 c30:  - x544 - x549 + x556 - x564 - x565 - x569 + x571 + x582 + x593 + x600
        = 1
 c31:  - x7 + x8 + x21 - x35 - x37 + x38 + x43 - x46 + x49 - x50 - x58  = -1
 c32:  - x67 + x68 + x81 - x95 - x97 + x98 + x103 - x106 + x109 - x110 - x118
        = 0
 c33:  - x127 + x128 + x141 - x155 - x157 + x158 + x163 - x166 + x169 - x170
       - x178  = 0
 c34:  - x187 + x188 + x201 - x215 - x217 + x218 + x223 - x226 + x229 - x230
       - x238  = 0
 c35:  - x247 + x248 + x261 - x275 - x277 + x278 + x283 - x286 + x289 - x290
       - x298  = 0
 c36:  - x307 + x308 + x321 - x335 - x337 + x338 + x343 - x346 + x349 - x350
       - x358  = 0
 c37:  - x367 + x368 + x381 - x395 - x397 + x398 + x403 - x406 + x409 - x410
       - x418  = -1
 c38:  - x427 + x428 + x441 - x455 - x457 + x458 + x463 - x466 + x469 - x470
       - x478  = 0
 c39:  - x487 + x488 + x501 - x515 - x517 + x518 + x523 - x526 + x529 - x530
       - x538  = 0
 c40:  - x547 + x548 + x561 - x575 - x577 + x578 + x583 - x586 + x589 - x590
       - x598  = 0
 c41:  x1 + x5 + x9 - x11 - x14 - x20 + x22 + x27 + x28 - x41 + x46 - x53 + x54
       - x55  = 0
 c42:  x61 + x65 + x69 - x71 - x74 - x80 + x82 + x87 + x88 - x101 + x106 - x113
       + x114 - x115  = 0
 c43:  x121 + x125 + x129 - x131 - x134 - x140 + x142 + x147 + x148 - x161
       + x166 - x173 + x174 - x175  = 0
 c44:  x181 + x185 + x189 - x191 - x194 - x200 + x202 + x207 + x208 - x221
       + x226 - x233 + x234 - x235  = 0
 c45:  x241 + x245 + x249 - x251 - x254 - x260 + x262 + x267 + x268 - x281
       + x286 - x293 + x294 - x295  = 0
 c46:  x301 + x305 + x309 - x311 - x314 - x320 + x322 + x327 + x328 - x341
       + x346 - x353 + x354 - x355  = -1
 c47:  x361 + x365 + x369 - x371 - x374 - x380 + x382 + x387 + x388 - x401
       + x406 - x413 + x414 - x415  = 0
 c48:  x421 + x425 + x429 - x431 - x434 - x440 + x442 + x447 + x448 - x461
       + x466 - x473 + x474 - x475  = 0
 c49:  x481 + x485 + x489 - x491 - x494 - x500 + x502 + x507 + x508 - x521
       + x526 - x533 + x534 - x535  = 0
 c50:  x541 + x545 + x549 - x551 - x554 - x560 + x562 + x567 + x568 - x581
       + x586 - x593 + x594 - x595  = 0
 c51:  - x2 + x11 - x16 + x17 + x18 - x22 + x29 + x32 - x51  = 1
 c52:  - x62 + x71 - x76 + x77 + x78 - x82 + x89 + x92 - x111  = 0
 c53:  - x122 + x131 - x136 + x137 + x138 - x142 + x149 + x152 - x171  = 0
 c54:  - x182 + x191 - x196 + x197 + x198 - x202 + x209 + x212 - x231  = 0
 c55:  - x242 + x251 - x256 + x257 + x258 - x262 + x269 + x272 - x291  = 0
 c56:  - x302 + x311 - x316 + x317 + x318 - x322 + x329 + x332 - x351  = 0
 c57:  - x362 + x371 - x376 + x377 + x378 - x382 + x389 + x392 - x411  = 0
 c58:  - x422 + x431 - x436 + x437 + x438 - x442 + x449 + x452 - x471  = 0
 c59:  - x482 + x491 - x496 + x497 + x498 - x502 + x509 + x512 - x531  = 1
 c60:  - x542 + x551 - x556 + x557 + x558 - x562 + x569 + x572 - x591  = 0
 c61:  x3 + x14 - x21 - x34 - x44 + x45 - x48 + x50 + x51 + x59 - x60  = 0
 c62:  x63 + x74 - x81 - x94 - x104 + x105 - x108 + x110 + x111 + x119 - x120
        = 0
 c63:  x123 + x134 - x141 - x154 - x164 + x165 - x168 + x170 + x171 + x179
       - x180  = 0
 c64:  x183 + x194 - x201 - x214 - x224 + x225 - x228 + x230 + x231 + x239
       - x240  = 1
 c65:  x243 + x254 - x261 - x274 - x284 + x285 - x288 + x290 + x291 + x299
       - x300  = 0
 c66:  x303 + x314 - x321 - x334 - x344 + x345 - x348 + x350 + x351 + x359
       - x360  = 0
 c67:  x363 + x374 - x381 - x394 - x404 + x405 - x408 + x410 + x411 + x419
       - x420  = 1
 c68:  x423 + x434 - x441 - x454 - x464 + x465 - x468 + x470 + x471 + x479
       - x480  = 0
 c69:  x483 + x494 - x501 - x514 - x524 + x525 - x528 + x530 + x531 + x539
       - x540  = 0
 c70:  x543 + x554 - x561 - x574 - x584 + x585 - x588 + x590 + x591 + x599
       - x600  = 0
 c71:  - x1 - x6 - x10 + x13 + x24 - x30 - x31 - x33 + x35 - x38 - x45 + x47
       + x52 + x55  = 0
 c72:  - x61 - x66 - x70 + x73 + x84 - x90 - x91 - x93 + x95 - x98 - x105
       + x107 + x112 + x115  = 0
 c73:  - x121 - x126 - x130 + x133 + x144 - x150 - x151 - x153 + x155 - x158
       - x165 + x167 + x172 + x175  = 0
 c74:  - x181 - x186 - x190 + x193 + x204 - x210 - x211 - x213 + x215 - x218
       - x225 + x227 + x232 + x235  = 0
 c75:  - x241 - x246 - x250 + x253 + x264 - x270 - x271 - x273 + x275 - x278
       - x285 + x287 + x292 + x295  = 1
 c76:  - x301 - x306 - x310 + x313 + x324 - x330 - x331 - x333 + x335 - x338
       - x345 + x347 + x352 + x355  = 1
 c77:  - x361 - x366 - x370 + x373 + x384 - x390 - x391 - x393 + x395 - x398
       - x405 + x407 + x412 + x415  = 0
 c78:  - x421 - x426 - x430 + x433 + x444 - x450 - x451 - x453 + x455 - x458
       - x465 + x467 + x472 + x475  = 0
 c79:  - x481 - x486 - x490 + x493 + x504 - x510 - x511 - x513 + x515 - x518
       - x525 + x527 + x532 + x535  = 0
 c80:  - x541 - x546 - x550 + x553 + x564 - x570 - x571 - x573 + x575 - x578
       - x585 + x587 + x592 + x595  = 0
 c81:  x2 + x4 - x15 - x18 + x19 + x26 - x28 + x30 - x36 - x40 - x47 + x56
       + x58  = 0
 c82:  x62 + x64 - x75 - x78 + x79 + x86 - x88 + x90 - x96 - x100 - x107 + x116
       + x118  = 1
 c83:  x122 + x124 - x135 - x138 + x139 + x146 - x148 + x150 - x156 - x160
       - x167 + x176 + x178  = 1
 c84:  x182 + x184 - x195 - x198 + x199 + x206 - x208 + x210 - x216 - x220
       - x227 + x236 + x238  = 0
 c85:  x242 + x244 - x255 - x258 + x259 + x266 - x268 + x270 - x276 - x280
       - x287 + x296 + x298  = 0
 c86:  x302 + x304 - x315 - x318 + x319 + x326 - x328 + x330 - x336 - x340
       - x347 + x356 + x358  = 0
 c87:  x362 + x364 - x375 - x378 + x379 + x386 - x388 + x390 - x396 - x400
       - x407 + x416 + x418  = 0
 c88:  x422 + x424 - x435 - x438 + x439 + x446 - x448 + x450 - x456 - x460
       - x467 + x476 + x478  = -1
 c89:  x482 + x484 - x495 - x498 + x499 + x506 - x508 + x510 - x516 - x520
       - x527 + x536 + x538  = 0
 c90:  x542 + x544 - x555 - x558 + x559 + x566 - x568 + x570 - x576 - x580
       - x587 + x596 + x598  = -1
 c91:  x6 - x8 - x19 + x20 - x32 + x36 + x39 + x44 - x54 - x57  = 0
 c92:  x66 - x68 - x79 + x80 - x92 + x96 + x99 + x104 - x114 - x117  = 0
 c93:  x126 - x128 - x139 + x140 - x152 + x156 + x159 + x164 - x174 - x177  = 0
 c94:  x186 - x188 - x199 + x200 - x212 + x216 + x219 + x224 - x234 - x237  = 0
 c95:  x246 - x248 - x259 + x260 - x272 + x276 + x279 + x284 - x294 - x297  = 0
 c96:  x306 - x308 - x319 + x320 - x332 + x336 + x339 + x344 - x354 - x357  = 0
 c97:  x366 - x368 - x379 + x380 - x392 + x396 + x399 + x404 - x414 - x417  = 0
 c98:  x426 - x428 - x439 + x440 - x452 + x456 + x459 + x464 - x474 - x477  = 1
 c99:  x486 - x488 - x499 + x500 - x512 + x516 + x519 + x524 - x534 - x537  = 0
 c100: x546 - x548 - x559 + x560 - x572 + x576 + x579 + x584 - x594 - x597  = 0
 c101: 4 x1 + 4 x61 + 4 x121 + 4 x181 + 4 x241 + 4 x301 + 4 x361 + 4 x421
       + 4 x481 + 4 x541 - 18 x601 <= 0
 c102: 4 x2 + 4 x62 + 4 x122 + 4 x182 + 4 x242 + 4 x302 + 4 x362 + 4 x422
       + 4 x482 + 4 x542 - 18 x602 <= 0
 c103: 4 x3 + 4 x63 + 4 x123 + 4 x183 + 4 x243 + 4 x303 + 4 x363 + 4 x423
       + 4 x483 + 4 x543 - 20 x603 <= 0
 c104: 4 x4 + 4 x64 + 4 x124 + 4 x184 + 4 x244 + 4 x304 + 4 x364 + 4 x424
       + 4 x484 + 4 x544 - 18 x604 <= 0
 c105: 4 x5 + 4 x65 + 4 x125 + 4 x185 + 4 x245 + 4 x305 + 4 x365 + 4 x425
       + 4 x485 + 4 x545 - 22 x605 <= 0
 c106: 4 x6 + 4 x66 + 4 x126 + 4 x186 + 4 x246 + 4 x306 + 4 x366 + 4 x426
       + 4 x486 + 4 x546 - 21 x606 <= 0
 c107: 4 x7 + 4 x67 + 4 x127 + 4 x187 + 4 x247 + 4 x307 + 4 x367 + 4 x427
       + 4 x487 + 4 x547 - 19 x607 <= 0
 c108: 4 x8 + 4 x68 + 4 x128 + 4 x188 + 4 x248 + 4 x308 + 4 x368 + 4 x428
       + 4 x488 + 4 x548 - 22 x608 <= 0
 c109: 4 x9 + 4 x69 + 4 x129 + 4 x189 + 4 x249 + 4 x309 + 4 x369 + 4 x429
       + 4 x489 + 4 x549 - 21 x609 <= 0
 c110: 4 x10 + 4 x70 + 4 x130 + 4 x190 + 4 x250 + 4 x310 + 4 x370 + 4 x430
       + 4 x490 + 4 x550 - 18 x610 <= 0
 c111: 4 x11 + 4 x71 + 4 x131 + 4 x191 + 4 x251 + 4 x311 + 4 x371 + 4 x431
       + 4 x491 + 4 x551 - 21 x611 <= 0
 c112: 4 x12 + 4 x72 + 4 x132 + 4 x192 + 4 x252 + 4 x312 + 4 x372 + 4 x432
       + 4 x492 + 4 x552 - 19 x612 <= 0
 c113: 4 x13 + 4 x73 + 4 x133 + 4 x193 + 4 x253 + 4 x313 + 4 x373 + 4 x433
       + 4 x493 + 4 x553 - 21 x613 <= 0
 c114: 4 x14 + 4 x74 + 4 x134 + 4 x194 + 4 x254 + 4 x314 + 4 x374 + 4 x434
       + 4 x494 + 4 x554 - 18 x614 <= 0
 c115: 4 x15 + 4 x75 + 4 x135 + 4 x195 + 4 x255 + 4 x315 + 4 x375 + 4 x435
       + 4 x495 + 4 x555 - 19 x615 <= 0
 c116: 4 x16 + 4 x76 + 4 x136 + 4 x196 + 4 x256 + 4 x316 + 4 x376 + 4 x436
       + 4 x496 + 4 x556 - 19 x616 <= 0
 c117: 4 x17 + 4 x77 + 4 x137 + 4 x197 + 4 x257 + 4 x317 + 4 x377 + 4 x437
       + 4 x497 + 4 x557 - 22 x617 <= 0
 c118: 4 x18 + 4 x78 + 4 x138 + 4 x198 + 4 x258 + 4 x318 + 4 x378 + 4 x438
       + 4 x498 + 4 x558 - 20 x618 <= 0
 c119: 4 x19 + 4 x79 + 4 x139 + 4 x199 + 4 x259 + 4 x319 + 4 x379 + 4 x439
       + 4 x499 + 4 x559 - 22 x619 <= 0
 c120: 4 x20 + 4 x80 + 4 x140 + 4 x200 + 4 x260 + 4 x320 + 4 x380 + 4 x440
       + 4 x500 + 4 x560 - 21 x620 <= 0
 c121: 4 x21 + 4 x81 + 4 x141 + 4 x201 + 4 x261 + 4 x321 + 4 x381 + 4 x441
       + 4 x501 + 4 x561 - 21 x621 <= 0
 c122: 4 x22 + 4 x82 + 4 x142 + 4 x202 + 4 x262 + 4 x322 + 4 x382 + 4 x442
       + 4 x502 + 4 x562 - 20 x622 <= 0
 c123: 4 x23 + 4 x83 + 4 x143 + 4 x203 + 4 x263 + 4 x323 + 4 x383 + 4 x443
       + 4 x503 + 4 x563 - 19 x623 <= 0
 c124: 4 x24 + 4 x84 + 4 x144 + 4 x204 + 4 x264 + 4 x324 + 4 x384 + 4 x444
       + 4 x504 + 4 x564 - 19 x624 <= 0
 c125: 4 x25 + 4 x85 + 4 x145 + 4 x205 + 4 x265 + 4 x325 + 4 x385 + 4 x445
       + 4 x505 + 4 x565 - 21 x625 <= 0
 c126: 4 x26 + 4 x86 + 4 x146 + 4 x206 + 4 x266 + 4 x326 + 4 x386 + 4 x446
       + 4 x506 + 4 x566 - 19 x626 <= 0
 c127: 4 x27 + 4 x87 + 4 x147 + 4 x207 + 4 x267 + 4 x327 + 4 x387 + 4 x447
       + 4 x507 + 4 x567 - 18 x627 <= 0
 c128: 4 x28 + 4 x88 + 4 x148 + 4 x208 + 4 x268 + 4 x328 + 4 x388 + 4 x448
       + 4 x508 + 4 x568 - 18 x628 <= 0
 c129: 4 x29 + 4 x89 + 4 x149 + 4 x209 + 4 x269 + 4 x329 + 4 x389 + 4 x449
       + 4 x509 + 4 x569 - 21 x629 <= 0
 c130: 4 x30 + 4 x90 + 4 x150 + 4 x210 + 4 x270 + 4 x330 + 4 x390 + 4 x450
       + 4 x510 + 4 x570 - 19 x630 <= 0
 c131: 4 x31 + 4 x91 + 4 x151 + 4 x211 + 4 x271 + 4 x331 + 4 x391 + 4 x451
       + 4 x511 + 4 x571 - 21 x631 <= 0
 c132: 4 x32 + 4 x92 + 4 x152 + 4 x212 + 4 x272 + 4 x332 + 4 x392 + 4 x452
       + 4 x512 + 4 x572 - 19 x632 <= 0
 c133: 4 x33 + 4 x93 + 4 x153 + 4 x213 + 4 x273 + 4 x333 + 4 x393 + 4 x453
       + 4 x513 + 4 x573 - 19 x633 <= 0
 c134: 4 x34 + 4 x94 + 4 x154 + 4 x214 + 4 x274 + 4 x334 + 4 x394 + 4 x454
       + 4 x514 + 4 x574 - 20 x634 <= 0
 c135: 4 x35 + 4 x95 + 4 x155 + 4 x215 + 4 x275 + 4 x335 + 4 x395 + 4 x455
       + 4 x515 + 4 x575 - 18 x635 <= 0
 c136: 4 x36 + 4 x96 + 4 x156 + 4 x216 + 4 x276 + 4 x336 + 4 x396 + 4 x456
       + 4 x516 + 4 x576 - 20 x636 <= 0
 c137: 4 x37 + 4 x97 + 4 x157 + 4 x217 + 4 x277 + 4 x337 + 4 x397 + 4 x457
       + 4 x517 + 4 x577 - 21 x637 <= 0
 c138: 4 x38 + 4 x98 + 4 x158 + 4 x218 + 4 x278 + 4 x338 + 4 x398 + 4 x458
       + 4 x518 + 4 x578 - 19 x638 <= 0
 c139: 4 x39 + 4 x99 + 4 x159 + 4 x219 + 4 x279 + 4 x339 + 4 x399 + 4 x459
       + 4 x519 + 4 x579 - 20 x639 <= 0
 c140: 4 x40 + 4 x100 + 4 x160 + 4 x220 + 4 x280 + 4 x340 + 4 x400 + 4 x460
       + 4 x520 + 4 x580 - 22 x640 <= 0
 c141: 4 x41 + 4 x101 + 4 x161 + 4 x221 + 4 x281 + 4 x341 + 4 x401 + 4 x461
       + 4 x521 + 4 x581 - 18 x641 <= 0
 c142: 4 x42 + 4 x102 + 4 x162 + 4 x222 + 4 x282 + 4 x342 + 4 x402 + 4 x462
       + 4 x522 + 4 x582 - 20 x642 <= 0
 c143: 4 x43 + 4 x103 + 4 x163 + 4 x223 + 4 x283 + 4 x343 + 4 x403 + 4 x463
       + 4 x523 + 4 x583 - 20 x643 <= 0
 c144: 4 x44 + 4 x104 + 4 x164 + 4 x224 + 4 x284 + 4 x344 + 4 x404 + 4 x464
       + 4 x524 + 4 x584 - 20 x644 <= 0
 c145: 4 x45 + 4 x105 + 4 x165 + 4 x225 + 4 x285 + 4 x345 + 4 x405 + 4 x465
       + 4 x525 + 4 x585 - 19 x645 <= 0
 c146: 4 x46 + 4 x106 + 4 x166 + 4 x226 + 4 x286 + 4 x346 + 4 x406 + 4 x466
       + 4 x526 + 4 x586 - 20 x646 <= 0
 c147: 4 x47 + 4 x107 + 4 x167 + 4 x227 + 4 x287 + 4 x347 + 4 x407 + 4 x467
       + 4 x527 + 4 x587 - 18 x647 <= 0
 c148: 4 x48 + 4 x108 + 4 x168 + 4 x228 + 4 x288 + 4 x348 + 4 x408 + 4 x468
       + 4 x528 + 4 x588 - 20 x648 <= 0
 c149: 4 x49 + 4 x109 + 4 x169 + 4 x229 + 4 x289 + 4 x349 + 4 x409 + 4 x469
       + 4 x529 + 4 x589 - 20 x649 <= 0
 c150: 4 x50 + 4 x110 + 4 x170 + 4 x230 + 4 x290 + 4 x350 + 4 x410 + 4 x470
       + 4 x530 + 4 x590 - 20 x650 <= 0
 c151: 4 x51 + 4 x111 + 4 x171 + 4 x231 + 4 x291 + 4 x351 + 4 x411 + 4 x471
       + 4 x531 + 4 x591 - 21 x651 <= 0
 c152: 4 x52 + 4 x112 + 4 x172 + 4 x232 + 4 x292 + 4 x352 + 4 x412 + 4 x472
       + 4 x532 + 4 x592 - 21 x652 <= 0
 c153: 4 x53 + 4 x113 + 4 x173 + 4 x233 + 4 x293 + 4 x353 + 4 x413 + 4 x473
       + 4 x533 + 4 x593 - 20 x653 <= 0
 c154: 4 x54 + 4 x114 + 4 x174 + 4 x234 + 4 x294 + 4 x354 + 4 x414 + 4 x474
       + 4 x534 + 4 x594 - 21 x654 <= 0
 c155: 4 x55 + 4 x115 + 4 x175 + 4 x235 + 4 x295 + 4 x355 + 4 x415 + 4 x475
       + 4 x535 + 4 x595 - 19 x655 <= 0
 c156: 4 x56 + 4 x116 + 4 x176 + 4 x236 + 4 x296 + 4 x356 + 4 x416 + 4 x476
       + 4 x536 + 4 x596 - 20 x656 <= 0
 c157: 4 x57 + 4 x117 + 4 x177 + 4 x237 + 4 x297 + 4 x357 + 4 x417 + 4 x477
       + 4 x537 + 4 x597 - 20 x657 <= 0
 c158: 4 x58 + 4 x118 + 4 x178 + 4 x238 + 4 x298 + 4 x358 + 4 x418 + 4 x478
       + 4 x538 + 4 x598 - 21 x658 <= 0
 c159: 4 x59 + 4 x119 + 4 x179 + 4 x239 + 4 x299 + 4 x359 + 4 x419 + 4 x479
       + 4 x539 + 4 x599 - 21 x659 <= 0
 c160: 4 x60 + 4 x120 + 4 x180 + 4 x240 + 4 x300 + 4 x360 + 4 x420 + 4 x480
       + 4 x540 + 4 x600 - 28 x660 <= 0
Bounds
 0 <= x1 <= 1
 0 <= x2 <= 1
 0 <= x3 <= 1
 0 <= x4 <= 1
 0 <= x5 <= 1
 0 <= x6 <= 1
 0 <= x7 <= 1
 0 <= x8 <= 1
 0 <= x9 <= 1
 0 <= x10 <= 1
 0 <= x11 <= 1
 0 <= x12 <= 1
 0 <= x13 <= 1
 0 <= x14 <= 1
 0 <= x15 <= 1
 0 <= x16 <= 1
 0 <= x17 <= 1
 0 <= x18 <= 1
 0 <= x19 <= 1
 0 <= x20 <= 1
 0 <= x21 <= 1
 0 <= x22 <= 1
 0 <= x23 <= 1
 0 <= x24 <= 1
 0 <= x25 <= 1
 0 <= x26 <= 1
 0 <= x27 <= 1
 0 <= x28 <= 1
 0 <= x29 <= 1
 0 <= x30 <= 1
 0 <= x31 <= 1
 0 <= x32 <= 1
 0 <= x33 <= 1
 0 <= x34 <= 1
 0 <= x35 <= 1
 0 <= x36 <= 1
 0 <= x37 <= 1
 0 <= x38 <= 1
 0 <= x39 <= 1
 0 <= x40 <= 1
 0 <= x41 <= 1
 0 <= x42 <= 1
 0 <= x43 <= 1
 0 <= x44 <= 1
 0 <= x45 <= 1
 0 <= x46 <= 1
 0 <= x47 <= 1
 0 <= x48 <= 1
 0 <= x49 <= 1
 0 <= x50 <= 1
 0 <= x51 <= 1
 0 <= x52 <= 1
 0 <= x53 <= 1
 0 <= x54 <= 1
 0 <= x55 <= 1
 0 <= x56 <= 1
 0 <= x57 <= 1
 0 <= x58 <= 1
 0 <= x59 <= 1
 0 <= x60 <= 1
 0 <= x61 <= 1
 0 <= x62 <= 1
 0 <= x63 <= 1
 0 <= x64 <= 1
 0 <= x65 <= 1
 0 <= x66 <= 1
 0 <= x67 <= 1
 0 <= x68 <= 1
 0 <= x69 <= 1
 0 <= x70 <= 1
 0 <= x71 <= 1
 0 <= x72 <= 1
 0 <= x73 <= 1
 0 <= x74 <= 1
 0 <= x75 <= 1
 0 <= x76 <= 1
 0 <= x77 <= 1
 0 <= x78 <= 1
 0 <= x79 <= 1
 0 <= x80 <= 1
 0 <= x81 <= 1
 0 <= x82 <= 1
 0 <= x83 <= 1
 0 <= x84 <= 1
 0 <= x85 <= 1
 0 <= x86 <= 1
 0 <= x87 <= 1
 0 <= x88 <= 1
 0 <= x89 <= 1
 0 <= x90 <= 1
 0 <= x91 <= 1
 0 <= x92 <= 1
 0 <= x93 <= 1
 0 <= x94 <= 1
 0 <= x95 <= 1
 0 <= x96 <= 1
 0 <= x97 <= 1
 0 <= x98 <= 1
 0 <= x99 <= 1
 0 <= x100 <= 1
 0 <= x101 <= 1
 0 <= x102 <= 1
 0 <= x103 <= 1
 0 <= x104 <= 1
 0 <= x105 <= 1
 0 <= x106 <= 1
 0 <= x107 <= 1
 0 <= x108 <= 1
 0 <= x109 <= 1
 0 <= x110 <= 1
 0 <= x111 <= 1
 0 <= x112 <= 1
 0 <= x113 <= 1
 0 <= x114 <= 1
 0 <= x115 <= 1
 0 <= x116 <= 1
 0 <= x117 <= 1
 0 <= x118 <= 1
 0 <= x119 <= 1
 0 <= x120 <= 1
 0 <= x121 <= 1
 0 <= x122 <= 1
 0 <= x123 <= 1
 0 <= x124 <= 1
 0 <= x125 <= 1
 0 <= x126 <= 1
 0 <= x127 <= 1
 0 <= x128 <= 1
 0 <= x129 <= 1
 0 <= x130 <= 1
 0 <= x131 <= 1
 0 <= x132 <= 1
 0 <= x133 <= 1
 0 <= x134 <= 1
 0 <= x135 <= 1
 0 <= x136 <= 1
 0 <= x137 <= 1
 0 <= x138 <= 1
 0 <= x139 <= 1
 0 <= x140 <= 1
 0 <= x141 <= 1
 0 <= x142 <= 1
 0 <= x143 <= 1
 0 <= x144 <= 1
 0 <= x145 <= 1
 0 <= x146 <= 1
 0 <= x147 <= 1
 0 <= x148 <= 1
 0 <= x149 <= 1
 0 <= x150 <= 1
 0 <= x151 <= 1
 0 <= x152 <= 1
 0 <= x153 <= 1
 0 <= x154 <= 1
 0 <= x155 <= 1
 0 <= x156 <= 1
 0 <= x157 <= 1
 0 <= x158 <= 1
 0 <= x159 <= 1
 0 <= x160 <= 1
 0 <= x161 <= 1
 0 <= x162 <= 1
 0 <= x163 <= 1
 0 <= x164 <= 1
 0 <= x165 <= 1
 0 <= x166 <= 1
 0 <= x167 <= 1
 0 <= x168 <= 1
 0 <= x169 <= 1
 0 <= x170 <= 1
 0 <= x171 <= 1
 0 <= x172 <= 1
 0 <= x173 <= 1
 0 <= x174 <= 1
 0 <= x175 <= 1
 0 <= x176 <= 1
 0 <= x177 <= 1
 0 <= x178 <= 1
 0 <= x179 <= 1
 0 <= x180 <= 1
 0 <= x181 <= 1
 0 <= x182 <= 1
 0 <= x183 <= 1
 0 <= x184 <= 1
 0 <= x185 <= 1
 0 <= x186 <= 1
 0 <= x187 <= 1
 0 <= x188 <= 1
 0 <= x189 <= 1
 0 <= x190 <= 1
 0 <= x191 <= 1
 0 <= x192 <= 1
 0 <= x193 <= 1
 0 <= x194 <= 1
 0 <= x195 <= 1
 0 <= x196 <= 1
 0 <= x197 <= 1
 0 <= x198 <= 1
 0 <= x199 <= 1
 0 <= x200 <= 1
 0 <= x201 <= 1
 0 <= x202 <= 1
 0 <= x203 <= 1
 0 <= x204 <= 1
 0 <= x205 <= 1
 0 <= x206 <= 1
 0 <= x207 <= 1
 0 <= x208 <= 1
 0 <= x209 <= 1
 0 <= x210 <= 1
 0 <= x211 <= 1
 0 <= x212 <= 1
 0 <= x213 <= 1
 0 <= x214 <= 1
 0 <= x215 <= 1
 0 <= x216 <= 1
 0 <= x217 <= 1
 0 <= x218 <= 1
 0 <= x219 <= 1
 0 <= x220 <= 1
 0 <= x221 <= 1
 0 <= x222 <= 1
 0 <= x223 <= 1
 0 <= x224 <= 1
 0 <= x225 <= 1
 0 <= x226 <= 1
 0 <= x227 <= 1
 0 <= x228 <= 1
 0 <= x229 <= 1
 0 <= x230 <= 1
 0 <= x231 <= 1
 0 <= x232 <= 1
 0 <= x233 <= 1
 0 <= x234 <= 1
 0 <= x235 <= 1
 0 <= x236 <= 1
 0 <= x237 <= 1
 0 <= x238 <= 1
 0 <= x239 <= 1
 0 <= x240 <= 1
 0 <= x241 <= 1
 0 <= x242 <= 1
 0 <= x243 <= 1
 0 <= x244 <= 1
 0 <= x245 <= 1
 0 <= x246 <= 1
 0 <= x247 <= 1
 0 <= x248 <= 1
 0 <= x249 <= 1
 0 <= x250 <= 1
 0 <= x251 <= 1
 0 <= x252 <= 1
 0 <= x253 <= 1
 0 <= x254 <= 1
 0 <= x255 <= 1
 0 <= x256 <= 1
 0 <= x257 <= 1
 0 <= x258 <= 1
 0 <= x259 <= 1
 0 <= x260 <= 1
 0 <= x261 <= 1
 0 <= x262 <= 1
 0 <= x263 <= 1
 0 <= x264 <= 1
 0 <= x265 <= 1
 0 <= x266 <= 1
 0 <= x267 <= 1
 0 <= x268 <= 1
 0 <= x269 <= 1
 0 <= x270 <= 1
 0 <= x271 <= 1
 0 <= x272 <= 1
 0 <= x273 <= 1
 0 <= x274 <= 1
 0 <= x275 <= 1
 0 <= x276 <= 1
 0 <= x277 <= 1
 0 <= x278 <= 1
 0 <= x279 <= 1
 0 <= x280 <= 1
 0 <= x281 <= 1
 0 <= x282 <= 1
 0 <= x283 <= 1
 0 <= x284 <= 1
 0 <= x285 <= 1
 0 <= x286 <= 1
 0 <= x287 <= 1
 0 <= x288 <= 1
 0 <= x289 <= 1
 0 <= x290 <= 1
 0 <= x291 <= 1
 0 <= x292 <= 1
 0 <= x293 <= 1
 0 <= x294 <= 1
 0 <= x295 <= 1
 0 <= x296 <= 1
 0 <= x297 <= 1
 0 <= x298 <= 1
 0 <= x299 <= 1
 0 <= x300 <= 1
 0 <= x301 <= 1
 0 <= x302 <= 1
 0 <= x303 <= 1
 0 <= x304 <= 1
 0 <= x305 <= 1
 0 <= x306 <= 1
 0 <= x307 <= 1
 0 <= x308 <= 1
 0 <= x309 <= 1
 0 <= x310 <= 1
 0 <= x311 <= 1
 0 <= x312 <= 1
 0 <= x313 <= 1
 0 <= x314 <= 1
 0 <= x315 <= 1
 0 <= x316 <= 1
 0 <= x317 <= 1
 0 <= x318 <= 1
 0 <= x319 <= 1
 0 <= x320 <= 1
 0 <= x321 <= 1
 0 <= x322 <= 1
 0 <= x323 <= 1
 0 <= x324 <= 1
 0 <= x325 <= 1
 0 <= x326 <= 1
 0 <= x327 <= 1
 0 <= x328 <= 1
 0 <= x329 <= 1
 0 <= x330 <= 1
 0 <= x331 <= 1
 0 <= x332 <= 1
 0 <= x333 <= 1
 0 <= x334 <= 1
 0 <= x335 <= 1
 0 <= x336 <= 1
 0 <= x337 <= 1
 0 <= x338 <= 1
 0 <= x339 <= 1
 0 <= x340 <= 1
 0 <= x341 <= 1
 0 <= x342 <= 1
 0 <= x343 <= 1
 0 <= x344 <= 1
 0 <= x345 <= 1
 0 <= x346 <= 1
 0 <= x347 <= 1
 0 <= x348 <= 1
 0 <= x349 <= 1
 0 <= x350 <= 1
 0 <= x351 <= 1
 0 <= x352 <= 1
 0 <= x353 <= 1
 0 <= x354 <= 1
 0 <= x355 <= 1
 0 <= x356 <= 1
 0 <= x357 <= 1
 0 <= x358 <= 1
 0 <= x359 <= 1
 0 <= x360 <= 1
 0 <= x361 <= 1
 0 <= x362 <= 1
 0 <= x363 <= 1
 0 <= x364 <= 1
 0 <= x365 <= 1
 0 <= x366 <= 1
 0 <= x367 <= 1
 0 <= x368 <= 1
 0 <= x369 <= 1
 0 <= x370 <= 1
 0 <= x371 <= 1
 0 <= x372 <= 1
 0 <= x373 <= 1
 0 <= x374 <= 1
 0 <= x375 <= 1
 0 <= x376 <= 1
 0 <= x377 <= 1
 0 <= x378 <= 1
 0 <= x379 <= 1
 0 <= x380 <= 1
 0 <= x381 <= 1
 0 <= x382 <= 1
 0 <= x383 <= 1
 0 <= x384 <= 1
 0 <= x385 <= 1
 0 <= x386 <= 1
 0 <= x387 <= 1
 0 <= x388 <= 1
 0 <= x389 <= 1
 0 <= x390 <= 1
 0 <= x391 <= 1
 0 <= x392 <= 1
 0 <= x393 <= 1
 0 <= x394 <= 1
 0 <= x395 <= 1
 0 <= x396 <= 1
 0 <= x397 <= 1
 0 <= x398 <= 1
 0 <= x399 <= 1
 0 <= x400 <= 1
 0 <= x401 <= 1
 0 <= x402 <= 1
 0 <= x403 <= 1
 0 <= x404 <= 1
 0 <= x405 <= 1
 0 <= x406 <= 1
 0 <= x407 <= 1
 0 <= x408 <= 1
 0 <= x409 <= 1
 0 <= x410 <= 1
 0 <= x411 <= 1
 0 <= x412 <= 1
 0 <= x413 <= 1
 0 <= x414 <= 1
 0 <= x415 <= 1
 0 <= x416 <= 1
 0 <= x417 <= 1
 0 <= x418 <= 1
 0 <= x419 <= 1
 0 <= x420 <= 1
 0 <= x421 <= 1
 0 <= x422 <= 1
 0 <= x423 <= 1
 0 <= x424 <= 1
 0 <= x425 <= 1
 0 <= x426 <= 1
 0 <= x427 <= 1
 0 <= x428 <= 1
 0 <= x429 <= 1
 0 <= x430 <= 1
 0 <= x431 <= 1
 0 <= x432 <= 1
 0 <= x433 <= 1
 0 <= x434 <= 1
 0 <= x435 <= 1
 0 <= x436 <= 1
 0 <= x437 <= 1
 0 <= x438 <= 1
 0 <= x439 <= 1
 0 <= x440 <= 1
 0 <= x441 <= 1
 0 <= x442 <= 1
 0 <= x443 <= 1
 0 <= x444 <= 1
 0 <= x445 <= 1
 0 <= x446 <= 1
 0 <= x447 <= 1
 0 <= x448 <= 1
 0 <= x449 <= 1
 0 <= x450 <= 1
 0 <= x451 <= 1
 0 <= x452 <= 1
 0 <= x453 <= 1
 0 <= x454 <= 1
 0 <= x455 <= 1
 0 <= x456 <= 1
 0 <= x457 <= 1
 0 <= x458 <= 1
 0 <= x459 <= 1
 0 <= x460 <= 1
 0 <= x461 <= 1
 0 <= x462 <= 1
 0 <= x463 <= 1
 0 <= x464 <= 1
 0 <= x465 <= 1
 0 <= x466 <= 1
 0 <= x467 <= 1
 0 <= x468 <= 1
 0 <= x469 <= 1
 0 <= x470 <= 1
 0 <= x471 <= 1
 0 <= x472 <= 1
 0 <= x473 <= 1
 0 <= x474 <= 1
 0 <= x475 <= 1
 0 <= x476 <= 1
 0 <= x477 <= 1
 0 <= x478 <= 1
 0 <= x479 <= 1
 0 <= x480 <= 1
 0 <= x481 <= 1
 0 <= x482 <= 1
 0 <= x483 <= 1
 0 <= x484 <= 1
 0 <= x485 <= 1
 0 <= x486 <= 1
 0 <= x487 <= 1
 0 <= x488 <= 1
 0 <= x489 <= 1
 0 <= x490 <= 1
 0 <= x491 <= 1
 0 <= x492 <= 1
 0 <= x493 <= 1
 0 <= x494 <= 1
 0 <= x495 <= 1
 0 <= x496 <= 1
 0 <= x497 <= 1
 0 <= x498 <= 1
 0 <= x499 <= 1
 0 <= x500 <= 1
 0 <= x501 <= 1
 0 <= x502 <= 1
 0 <= x503 <= 1
 0 <= x504 <= 1
 0 <= x505 <= 1
 0 <= x506 <= 1
 0 <= x507 <= 1
 0 <= x508 <= 1
 0 <= x509 <= 1
 0 <= x510 <= 1
 0 <= x511 <= 1
 0 <= x512 <= 1
 0 <= x513 <= 1
 0 <= x514 <= 1
 0 <= x515 <= 1
 0 <= x516 <= 1
 0 <= x517 <= 1
 0 <= x518 <= 1
 0 <= x519 <= 1
 0 <= x520 <= 1
 0 <= x521 <= 1
 0 <= x522 <= 1
 0 <= x523 <= 1
 0 <= x524 <= 1
 0 <= x525 <= 1
 0 <= x526 <= 1
 0 <= x527 <= 1
 0 <= x528 <= 1
 0 <= x529 <= 1
 0 <= x530 <= 1
 0 <= x531 <= 1
 0 <= x532 <= 1
 0 <= x533 <= 1
 0 <= x534 <= 1
 0 <= x535 <= 1
 0 <= x536 <= 1
 0 <= x537 <= 1
 0 <= x538 <= 1
 0 <= x539 <= 1
 0 <= x540 <= 1
 0 <= x541 <= 1
 0 <= x542 <= 1
 0 <= x543 <= 1
 0 <= x544 <= 1
 0 <= x545 <= 1
 0 <= x546 <= 1
 0 <= x547 <= 1
 0 <= x548 <= 1
 0 <= x549 <= 1
 0 <= x550 <= 1
 0 <= x551 <= 1
 0 <= x552 <= 1
 0 <= x553 <= 1
 0 <= x554 <= 1
 0 <= x555 <= 1
 0 <= x556 <= 1
 0 <= x557 <= 1
 0 <= x558 <= 1
 0 <= x559 <= 1
 0 <= x560 <= 1
 0 <= x561 <= 1
 0 <= x562 <= 1
 0 <= x563 <= 1
 0 <= x564 <= 1
 0 <= x565 <= 1
 0 <= x566 <= 1
 0 <= x567 <= 1
 0 <= x568 <= 1
 0 <= x569 <= 1
 0 <= x570 <= 1
 0 <= x571 <= 1
 0 <= x572 <= 1
 0 <= x573 <= 1
 0 <= x574 <= 1
 0 <= x575 <= 1
 0 <= x576 <= 1
 0 <= x577 <= 1
 0 <= x578 <= 1
 0 <= x579 <= 1
 0 <= x580 <= 1
 0 <= x581 <= 1
 0 <= x582 <= 1
 0 <= x583 <= 1
 0 <= x584 <= 1
 0 <= x585 <= 1
 0 <= x586 <= 1
 0 <= x587 <= 1
 0 <= x588 <= 1
 0 <= x589 <= 1
 0 <= x590 <= 1
 0 <= x591 <= 1
 0 <= x592 <= 1
 0 <= x593 <= 1
 0 <= x594 <= 1
 0 <= x595 <= 1
 0 <= x596 <= 1
 0 <= x597 <= 1
 0 <= x598 <= 1
 0 <= x599 <= 1
 0 <= x600 <= 1
 0 <= x601 <= 1
 0 <= x602 <= 1
 0 <= x603 <= 1
 0 <= x604 <= 1
 0 <= x605 <= 1
 0 <= x606 <= 1
 0 <= x607 <= 1
 0 <= x608 <= 1
 0 <= x609 <= 1
 0 <= x610 <= 1
 0 <= x611 <= 1
 0 <= x612 <= 1
 0 <= x613 <= 1
 0 <= x614 <= 1
 0 <= x615 <= 1
 0 <= x616 <= 1
 0 <= x617 <= 1
 0 <= x618 <= 1
 0 <= x619 <= 1
 0 <= x620 <= 1
 0 <= x621 <= 1
 0 <= x622 <= 1
 0 <= x623 <= 1
 0 <= x624 <= 1
 0 <= x625 <= 1
 0 <= x626 <= 1
 0 <= x627 <= 1
 0 <= x628 <= 1
 0 <= x629 <= 1
 0 <= x630 <= 1
 0 <= x631 <= 1
 0 <= x632 <= 1
 0 <= x633 <= 1
 0 <= x634 <= 1
 0 <= x635 <= 1
 0 <= x636 <= 1
 0 <= x637 <= 1
 0 <= x638 <= 1
 0 <= x639 <= 1
 0 <= x640 <= 1
 0 <= x641 <= 1
 0 <= x642 <= 1
 0 <= x643 <= 1
 0 <= x644 <= 1
 0 <= x645 <= 1
 0 <= x646 <= 1
 0 <= x647 <= 1
 0 <= x648 <= 1
 0 <= x649 <= 1
 0 <= x650 <= 1
 0 <= x651 <= 1
 0 <= x652 <= 1
 0 <= x653 <= 1
 0 <= x654 <= 1
 0 <= x655 <= 1
 0 <= x656 <= 1
 0 <= x657 <= 1
 0 <= x658 <= 1
 0 <= x659 <= 1
 0 <= x660 <= 1
Binaries
 x601  x602  x603  x604  x605  x606  x607  x608  x609  x610  x611  x612  x613 
 x614  x615  x616  x617  x618  x619  x620  x621  x622  x623  x624  x625  x626 
 x627  x628  x629  x630  x631  x632  x633  x634  x635  x636  x637  x638  x639 
 x640  x641  x642  x643  x644  x645  x646  x647  x648  x649  x650  x651  x652 
 x653  x654  x655  x656  x657  x658  x659  x660 
End
